








































































































59 23 7 53 43 37 25 48 
64 68 1 75 28 57 12 42 
30 13 54 47 46 15 34 45 
32 36 74 62 65 40 52 21 
4 76 29 35 67 61 10 31 
0 6 69 51 55 20 70 44 27 
18 39 5 26 2 41 73 
8 17 72 63 33 11 58 
50 19 38 49 9 22 56 
60 14 71 16 3 66 24 
